p cnf 35 97
a 12 29 0
e 1 2 3 4 5 6 7 8 9 10 11 13 14 15 16 17 18 19 20 21 22 23 24 25 26 27 28 30 31 32 33 34 35 0
3 1 0
3 2 0
-1 -2 -3 0
6 4 0
6 -5 0
-4 5 -6 0
3 -6 -7 0
-3 6 -7 0
3 6 7 0
-3 -6 7 0
-9 -7 0
-9 8 0
7 -8 9 0
6 -2 -10 0
-6 2 -10 0
6 2 10 0
-6 -2 10 0
11 10 0
11 -5 0
-10 5 -11 0
-13 8 0
-13 -12 0
-8 12 13 0
14 11 0
14 13 0
-11 -13 -14 0
-15 -9 0
-15 14 0
9 -14 15 0
17 6 0
17 16 0
-6 -16 -17 0
18 17 0
18 10 0
-17 -10 -18 0
19 -5 0
19 6 0
5 -6 -19 0
19 2 -20 0
-19 -2 -20 0
19 -2 20 0
-19 2 20 0
-20 7 -21 0
20 -7 -21 0
-20 -7 21 0
20 7 21 0
22 -5 0
22 19 0
5 -19 -22 0
-23 -21 0
-23 -22 0
21 22 23 0
-25 5 0
-25 3 0
-5 -3 25 0
-26 24 0
-26 -25 0
-24 25 26 0
27 -23 0
27 -26 0
23 26 -27 0
-28 -18 0
-28 27 0
18 -27 28 0
-15 -28 -29 0
15 28 -29 0
-15 28 29 0
15 -28 29 0
-30 -12 0
-30 -3 0
12 3 30 0
-29 -30 -31 0
29 30 -31 0
-29 30 31 0
29 -30 31 0
32 19 0
32 -8 0
-19 8 -32 0
-33 -19 0
-33 20 0
19 -20 33 0
-34 -32 0
-34 33 0
32 -33 34 0
35 -31 0
35 34 0
31 -34 -35 0
10 -9 0
-16 6 28 29 -10 0
-14 2 20 10 16 0
15 -7 -10 9 -12 3 0
-14 -7 35 24 0
-12 14 9 -4 0
7 -13 -25 0
33 -34 29 18 0
19 -26 -9 6 0
35 0
